169
0
18
96
173
374
925
66
128
16
904
45
0
838
0
43
43
2183
0
73
12
30
203
94
30
330
15
46
28
4995
0
27
90
53
337
20
10
317
395
321
432
258
0
0
131
369
112
19
184
70
126
54
0
24
15
98
28
0
58
30
186
28
23
164
42
287
433
31
13
887
28
33
159
34
13
28
0
43
71
56
42
117
301
20
49
1100
14
1964
26
92
142
11
0
33
62
35
18
19
11
40
